qbf_easy_train/easy_4609_UNSAT.qdimacs
p cnf 39 112
a 1 25 31 0
e 2 3 4 5 6 7 8 9 10 11 12 13 14 15 16 17 18 19 20 21 22 23 24 26 27 28 29 30 32 33 34 35 36 37 38 39 0
3 1 0
3 -2 0
-1 2 -3 0
5 -4 0
5 3 0
4 -3 -5 0
-3 -5 -6 0
3 5 -6 0
-3 5 6 0
3 -5 6 0
-1 9 -10 0
1 -9 -10 0
-1 -9 10 0
1 9 10 0
11 -8 0
11 -10 0
8 10 -11 0
-12 -7 0
-12 -11 0
7 11 12 0
-13 -2 0
-13 -2 0
2 13 0
-14 -13 0
-14 8 0
13 -8 14 0
16 -14 0
16 -15 0
14 15 -16 0
-17 1 0
-17 -5 0
-1 5 17 0
2 17 -18 0
-2 -17 -18 0
2 -17 18 0
-2 17 18 0
19 -16 0
19 -18 0
16 18 -19 0
-5 -8 -20 0
5 8 -20 0
-5 8 20 0
5 -8 20 0
-21 -8 0
-21 -20 0
8 20 21 0
22 8 0
22 17 0
-8 -17 -22 0
24 22 0
24 23 0
-22 -23 -24 0
25 -8 0
25 8 0
-26 -11 0
-26 10 0
11 -10 26 0
25 -26 -27 0
-25 26 -27 0
25 26 27 0
-25 -26 27 0
-28 24 0
-28 -27 0
-24 27 28 0
29 21 0
29 -28 0
-21 28 -29 0
19 -29 -30 0
-19 29 -30 0
19 29 30 0
-19 -29 30 0
31 16 0
31 14 0
-16 -14 -31 0
-30 31 -32 0
30 -31 -32 0
-30 -31 32 0
30 31 32 0
4 1 -33 0
-4 -1 -33 0
4 -1 33 0
-4 1 33 0
-34 33 0
-34 13 0
-33 -13 34 0
-35 3 0
-35 2 0
-3 -2 35 0
36 -34 0
36 35 0
34 -35 -36 0
37 32 0
37 -36 0
-32 36 -37 0
38 12 0
38 -37 0
-12 37 -38 0
-6 -38 -39 0
6 38 -39 0
-6 38 39 0
6 -38 39 0
35 -16 -6 -5 -15 3 0
18 30 -26 35 -7 -21 1 0
-39 -30 31 15 22 -19 -12 0
-36 17 22 0
35 -25 0
15 -19 -31 0
31 -3 16 1 0
20 -2 0
10 1 -15 23 38 0
-11 -9 -20 -24 0
39 0
