sat_easy_train/easy_4609_UNSAT.dimacs
p cnf 149 509
4 -2 0
4 3 0
2 -3 -4 0
6 4 0
6 -5 0
-4 5 -6 0
7 -1 0
7 -6 0
1 6 -7 0
-8 -7 0
-8 3 0
7 -3 8 0
10 9 0
10 3 0
-9 -3 -10 0
11 9 0
11 -10 0
-9 10 -11 0
11 4 -12 0
-11 -4 -12 0
11 -4 12 0
-11 4 12 0
13 12 0
13 -11 0
-12 11 -13 0
14 8 0
14 13 0
-8 -13 -14 0
15 16 -17 0
-15 -16 -17 0
15 -16 17 0
-15 16 17 0
18 14 0
18 -17 0
-14 17 -18 0
-21 19 0
-21 20 0
-19 -20 21 0
21 -3 -22 0
-21 3 -22 0
21 3 22 0
-21 -3 22 0
23 -22 0
23 -20 0
22 20 -23 0
24 4 0
24 -10 0
-4 10 -24 0
-23 -24 -25 0
23 24 -25 0
-23 24 25 0
23 -24 25 0
-4 1 -26 0
4 -1 -26 0
-4 -1 26 0
4 1 26 0
-27 19 0
-27 26 0
-19 -26 27 0
28 -11 0
28 27 0
11 -27 -28 0
-29 -27 0
-29 -28 0
27 28 29 0
-30 12 0
-30 -29 0
-12 29 30 0
31 -1 0
31 30 0
1 -30 -31 0
32 31 0
32 22 0
-31 -22 -32 0
-23 32 -33 0
23 -32 -33 0
-23 -32 33 0
23 32 33 0
35 -26 0
35 -19 0
26 19 -35 0
36 34 0
36 35 0
-34 -35 -36 0
37 -5 0
37 -36 0
5 36 -37 0
37 -4 -38 0
-37 4 -38 0
37 4 38 0
-37 -4 38 0
39 -33 0
39 -38 0
33 38 -39 0
25 39 -40 0
-25 -39 -40 0
25 -39 40 0
-25 39 40 0
41 18 0
41 40 0
-18 -40 -41 0
-36 1 -42 0
36 -1 -42 0
-36 -1 42 0
36 1 42 0
-43 2 0
-43 -32 0
-2 32 43 0
-42 43 -44 0
42 -43 -44 0
-42 -43 44 0
42 43 44 0
46 4 0
46 30 0
-4 -30 -46 0
47 45 0
47 -46 0
-45 46 -47 0
-48 44 0
-48 47 0
-44 -47 48 0
-49 30 0
-49 48 0
-30 -48 49 0
49 -37 -50 0
-49 37 -50 0
49 37 50 0
-49 -37 50 0
-51 26 -52 0
51 -26 -52 0
-51 -26 52 0
51 26 52 0
-16 -52 -53 0
16 52 -53 0
-16 52 53 0
16 -52 53 0
-54 17 0
-54 -45 0
-17 45 54 0
-55 47 0
-55 2 0
-47 -2 55 0
-56 30 0
-56 12 0
-30 -12 56 0
57 -3 0
57 -56 0
3 56 -57 0
55 57 -58 0
-55 -57 -58 0
55 -57 58 0
-55 57 58 0
59 -54 0
59 -58 0
54 58 -59 0
-60 37 0
-60 -28 0
-37 28 60 0
-61 59 0
-61 -60 0
-59 60 61 0
-62 -56 0
-62 24 0
56 -24 62 0
61 62 -63 0
-61 -62 -63 0
61 -62 63 0
-61 62 63 0
-65 64 0
-65 64 0
-64 65 0
-12 -5 -66 0
12 5 -66 0
-12 5 66 0
12 -5 66 0
67 -65 0
67 -66 0
65 66 -67 0
-68 -67 0
-68 7 0
67 -7 68 0
69 12 0
69 -68 0
-12 68 -69 0
70 46 0
70 52 0
-46 -52 -70 0
71 -65 0
71 67 0
65 -67 -71 0
-72 -31 0
-72 -71 0
31 71 72 0
73 70 0
73 72 0
-70 -72 -73 0
-74 -69 0
-74 73 0
69 -73 74 0
75 64 0
75 -27 0
-64 27 -75 0
-76 -75 0
-76 16 0
75 -16 76 0
-77 74 0
-77 76 0
-74 -76 77 0
78 63 0
78 -77 0
-63 77 -78 0
-79 -56 0
-79 36 0
56 -36 79 0
29 66 -81 0
-29 -66 -81 0
29 -66 81 0
-29 66 81 0
82 80 0
82 81 0
-80 -81 -82 0
-83 12 0
-83 15 0
-12 -15 83 0
84 -83 0
84 -28 0
83 28 -84 0
-44 -80 -85 0
44 80 -85 0
-44 80 85 0
44 -80 85 0
86 -14 0
86 27 0
14 -27 -86 0
87 -85 0
87 -86 0
85 86 -87 0
88 84 0
88 87 0
-84 -87 -88 0
89 82 0
89 88 0
-82 -88 -89 0
12 -16 -90 0
-12 16 -90 0
12 16 90 0
-12 -16 90 0
91 -56 0
91 9 0
56 -9 -91 0
92 91 0
92 -26 0
-91 26 -92 0
93 -90 0
93 92 0
90 -92 -93 0
94 89 0
94 -93 0
-89 93 -94 0
-79 -94 -95 0
79 94 -95 0
-79 94 95 0
79 -94 95 0
96 -78 0
96 -95 0
78 95 -96 0
97 53 0
97 96 0
-53 -96 -97 0
98 -50 0
98 -97 0
50 97 -98 0
99 -51 0
99 -1 0
51 1 -99 0
-56 -21 -100 0
56 21 -100 0
-56 21 100 0
56 -21 100 0
101 99 0
101 -100 0
-99 100 -101 0
-102 22 0
-102 26 0
-22 -26 102 0
-101 -102 -103 0
101 102 -103 0
-101 102 103 0
101 -102 103 0
24 66 -105 0
-24 -66 -105 0
24 -66 105 0
-24 66 105 0
104 -105 -106 0
-104 105 -106 0
104 105 106 0
-104 -105 106 0
-107 -67 0
-107 -1 0
67 1 107 0
-106 -107 -108 0
106 107 -108 0
-106 107 108 0
106 -107 108 0
109 19 0
109 5 0
-19 -5 -109 0
-110 -83 0
-110 35 0
83 -35 110 0
111 110 0
111 -109 0
-110 109 -111 0
-109 111 -112 0
109 -111 -112 0
-109 -111 112 0
109 111 112 0
-113 36 0
-113 -112 0
-36 112 113 0
-113 -35 -114 0
113 35 -114 0
-113 35 114 0
113 -35 114 0
115 -108 0
115 114 0
108 -114 -115 0
103 115 -116 0
-103 -115 -116 0
103 -115 116 0
-103 115 116 0
117 98 0
117 -116 0
-98 116 -117 0
-52 -83 -118 0
52 83 -118 0
-52 83 118 0
52 -83 118 0
-119 -23 0
-119 118 0
23 -118 119 0
120 -75 0
120 -45 0
75 45 -120 0
-45 -29 -121 0
45 29 -121 0
-45 29 121 0
45 -29 121 0
46 121 -122 0
-46 -121 -122 0
46 -121 122 0
-46 121 122 0
123 -120 0
123 122 0
120 -122 -123 0
124 119 0
124 -123 0
-119 123 -124 0
-125 51 0
-125 -13 0
-51 13 125 0
-124 125 -126 0
124 -125 -126 0
-124 -125 126 0
124 125 126 0
127 -20 0
127 30 0
20 -30 -127 0
45 27 -128 0
-45 -27 -128 0
45 -27 128 0
-45 27 128 0
81 128 -129 0
-81 -128 -129 0
81 -128 129 0
-81 128 129 0
-130 -80 -131 0
130 80 -131 0
-130 80 131 0
130 -80 131 0
-132 -129 0
-132 131 0
129 -131 132 0
127 132 -133 0
-127 -132 -133 0
127 -132 133 0
-127 132 133 0
126 -133 -134 0
-126 133 -134 0
126 133 134 0
-126 -133 134 0
12 -128 -135 0
-12 128 -135 0
12 128 135 0
-12 -128 135 0
136 134 0
136 135 0
-134 -135 -136 0
137 -42 0
137 19 0
42 -19 -137 0
-136 -137 -138 0
136 137 -138 0
-136 137 138 0
136 -137 138 0
-111 67 -139 0
111 -67 -139 0
-111 -67 139 0
111 67 139 0
140 34 0
140 -51 0
-34 51 -140 0
141 -139 0
141 -140 0
139 140 -141 0
-142 -99 0
-142 14 0
99 -14 142 0
143 142 0
143 -31 0
-142 31 -143 0
144 141 0
144 143 0
-141 -143 -144 0
131 -48 -145 0
-131 48 -145 0
131 48 145 0
-131 -48 145 0
144 -145 -146 0
-144 145 -146 0
144 145 146 0
-144 -145 146 0
147 138 0
147 -146 0
-138 146 -147 0
-148 117 0
-148 147 0
-117 -147 148 0
41 148 -149 0
-41 -148 -149 0
41 -148 149 0
-41 148 149 0
13 50 -14 94 0
-88 -86 54 -37 -83 16 0
-128 -148 23 0
-38 17 53 44 -142 0
114 -44 -19 -130 79 0
17 -67 0
50 51 -145 -108 0
126 118 90 129 121 0
134 94 88 129 89 119 0
-60 -72 -13 91 27 14 0
81 77 -12 106 -41 0
78 -11 -55 0
-64 118 0
-82 -36 102 -132 -96 0
43 -61 0
-136 126 0
85 51 0
-65 40 0
-14 62 -70 -79 20 0
-97 -40 -105 -59 134 108 0
-35 14 -108 -114 0
-16 38 0
42 -106 0
-4 -46 -56 69 -131 0
20 -140 0
-85 87 -26 -120 0
-53 80 129 -36 86 98 0
-8 -48 81 -146 -142 0
70 7 -106 -46 0
149 94 46 58 91 -112 0
-99 147 -2 122 0
36 88 0
85 -117 35 0
108 31 0
-37 34 -11 133 -7 0
1 -33 0
-74 44 73 72 0
-11 53 96 0
37 -2 -44 -8 129 -95 0
121 -120 -122 -141 0
115 -16 143 -86 -78 -94 0
71 -149 -7 0
-121 -114 -120 -41 148 0
-98 11 0
-46 41 -4 110 -146 109 0
78 -14 127 34 15 0
-23 122 -87 -54 -140 0
79 -120 0
40 -91 -77 56 -104 0
112 -75 143 0
-49 -140 142 -55 -18 0
62 121 122 -138 24 -8 0
-89 46 0
63 -75 -133 7 147 0
-140 13 27 107 0
77 -69 143 0
-71 -64 38 97 47 -122 0
89 61 0
67 -132 0
121 63 73 -27 0
113 8 142 -131 0
67 108 51 -116 0
-96 29 119 -79 86 0
-129 39 54 0
10 -87 91 26 147 0
33 42 13 -133 0
149 0
